max_w = 20;
max_h = 10;
max_links = 6;
COMPONENT = {Q1, J1, R1, C1};
allowed_orientation = [
  Q1: {Upright, UpsideDown},
  J1: {Upright, UpsideDown},
  R1: ORIENTATION,
  C1: ORIENTATION,
];
PIN = {
  Q1_C, Q1_B, Q1_E,
  J1_VCC, J1_GND, J1_IN, J1_OUT1, J1_OUT2,
  R1_1, R1_2,
  C1_1, C1_2,
};
NET = {VCC, GND, IN, OUT1, OUT2, N1};
footprint_w = [Q1: 1, J1: 1, R1: 1, C1: 3];
footprint_h = [Q1: 3, J1: 5, R1: 5, C1: 3];
pin_dx = [
  Q1_C: 1, Q1_B: 1, Q1_E: 1,
  J1_VCC: 1, J1_GND: 1, J1_IN: 1, J1_OUT1: 1, J1_OUT2: 1,
  R1_1: 1, R1_2: 1,
  C1_1: 2, C1_2: 2
];
pin_dy = [
  Q1_C: 1, Q1_B: 2, Q1_E: 3,
  J1_VCC: 1, J1_GND: 2, J1_IN: 3, J1_OUT1: 4, J1_OUT2: 5,
  R1_1: 1, R1_2: 3,
  C1_1: 1, C1_2: 3
];
pin_net = [
  Q1_C: OUT1, Q1_B: N1, Q1_E: GND,
  J1_VCC: VCC, J1_GND: GND, J1_IN: IN, J1_OUT1: OUT1, J1_OUT2: OUT2,
  R1_1: N1, R1_2: OUT1,
  C1_1: IN, C1_2: N1,
];
pins = [
  Q1: Q1_C..Q1_E,
  J1: J1_VCC..J1_OUT2,
  R1: R1_1..R1_2,
  C1: C1_1..C1_2,
];
